9
0  12  85  47  33  59  14  78  22
65  0  18  92  10  50  44  27  36
28  55  0  63  77  21  88  12  49
90  11  73  0  41  62  35  14  57
37  64  22  80  0  18  95  29  46
56  48  10  25  60  0  71  33  14
15  72  81  19  30  47  0  68  55
40  13  69  52  23  87  32  0  61
77  36  44  28  55  12  90  21  0